100
128
35
55
39
57
58
6
42
31
6
12
61
48
32
23
30
29
6
12
15
14
16
39
13
11
13
45
25
45
30
35
48
12
25
33
20
17
64
9
16
11
64
9
57
41
21
39
12
25
21
36
10
17
12
53
35
15
52
20
12
6
57
37
52
19
22
16
15
21
38
58
37
16
18
3
17
46
58
33
23
23
18
18
24
45
25
20
22
40
30
29
42
21
6
39
28
59
26
16
44
57